decision_x4=[0,2];
decision_x5=[0,2];
decision_x6=[0,2];
decision_x7=[0,2];
decision_x8=[0,2];
decision_x9=[0,2];
decision_x10=[0,2];
decision_x1=[0,2];
decision_x2=[0,2];
decision_x3=[0,2];
random_y1=[0,2];
random_y2=[0,2];
constraint_x3_x1=[
0,0,8.9|
0,1,7.9|
0,2,7.1|
1,0,7.8|
1,1,0.56|
1,2,6.5|
2,0,8.9|
2,1,8.1|
2,2,0.49|
];
constraint_x4_x1=[
0,0,6.8|
0,1,7.8|
0,2,4.1|
1,0,5.9|
1,1,4.3|
1,2,0.17|
2,0,4.1|
2,1,5.9|
2,2,1.4|
];
constraint_x5_x2=[
0,0,1.1|
0,1,9.3|
0,2,6.7|
1,0,4.6|
1,1,1.4|
1,2,5.3|
2,0,5.9|
2,1,9.4|
2,2,6.9|
];
constraint_x5_x3=[
0,0,3.7|
0,1,1.2|
0,2,3.8|
1,0,6.1|
1,1,9.9|
1,2,3.5|
2,0,5.7|
2,1,5.7|
2,2,8|
];
constraint_x6_x1=[
0,0,4.2|
0,1,2.7|
0,2,9.7|
1,0,7.5|
1,1,6.6|
1,2,5.4|
2,0,9.2|
2,1,8|
2,2,9.8|
];
constraint_x6_x3=[
0,0,3|
0,1,5.2|
0,2,9.4|
1,0,4.6|
1,1,3.3|
1,2,5|
2,0,7.4|
2,1,9|
2,2,8.6|
];
constraint_x7_x3=[
0,0,1.4|
0,1,4.2|
0,2,5.2|
1,0,8.4|
1,1,0.95|
1,2,2.2|
2,0,9.2|
2,1,2|
2,2,2.9|
];
constraint_x7_x4=[
0,0,3.1|
0,1,5|
0,2,5.7|
1,0,0.15|
1,1,4.1|
1,2,4.9|
2,0,8.5|
2,1,0.35|
2,2,9.3|
];
constraint_x7_x5=[
0,0,4.9|
0,1,4.5|
0,2,1.6|
1,0,6.4|
1,1,7.4|
1,2,5.1|
2,0,7.9|
2,1,8.2|
2,2,3.1|
];
constraint_x7_x6=[
0,0,1.6|
0,1,0.066|
0,2,9|
1,0,0.031|
1,1,8|
1,2,8.5|
2,0,0.71|
2,1,1.8|
2,2,4.5|
];
constraint_x8_x1=[
0,0,5.9|
0,1,4.8|
0,2,1.4|
1,0,0.47|
1,1,1.6|
1,2,6|
2,0,5.1|
2,1,6.7|
2,2,4.6|
];
constraint_x8_x4=[
0,0,3.5|
0,1,10|
0,2,7.9|
1,0,0.79|
1,1,5.3|
1,2,4.9|
2,0,1.1|
2,1,2.7|
2,2,7.4|
];
constraint_x8_x6=[
0,0,7.1|
0,1,9|
0,2,0.8|
1,0,3.4|
1,1,3.8|
1,2,5.6|
2,0,4.3|
2,1,5|
2,2,9.3|
];
constraint_x8_x7=[
0,0,6.5|
0,1,5.1|
0,2,5.9|
1,0,8.6|
1,1,5.1|
1,2,4.3|
2,0,2.6|
2,1,8.7|
2,2,7.2|
];
constraint_x9_x1=[
0,0,5.2|
0,1,4.3|
0,2,0.65|
1,0,2|
1,1,2|
1,2,0.48|
2,0,3.7|
2,1,2.2|
2,2,3.3|
];
constraint_x9_x3=[
0,0,1.8|
0,1,6.7|
0,2,3.3|
1,0,0.44|
1,1,5|
1,2,4.4|
2,0,7.8|
2,1,9.9|
2,2,1|
];
constraint_x9_x4=[
0,0,5.4|
0,1,4.9|
0,2,8.6|
1,0,3.5|
1,1,2|
1,2,1.5|
2,0,1.7|
2,1,4.8|
2,2,4.6|
];
constraint_x9_x5=[
0,0,1.8|
0,1,5.6|
0,2,3.9|
1,0,6.1|
1,1,2|
1,2,8.8|
2,0,4.7|
2,1,7.9|
2,2,2.6|
];
constraint_x10_x1=[
0,0,9.1|
0,1,0.54|
0,2,9|
1,0,6.7|
1,1,5.9|
1,2,8.2|
2,0,7.5|
2,1,0.64|
2,2,8.8|
];
constraint_x10_x3=[
0,0,0.75|
0,1,0.36|
0,2,3.1|
1,0,4.3|
1,1,1.9|
1,2,2.4|
2,0,8.4|
2,1,3.3|
2,2,9|
];
constraint_x10_x4=[
0,0,5|
0,1,3.5|
0,2,4.4|
1,0,3|
1,1,4.4|
1,2,2.5|
2,0,2.2|
2,1,5.8|
2,2,5.9|
];
constraint_x10_x8=[
0,0,0.27|
0,1,4.5|
0,2,5.4|
1,0,6.5|
1,1,7.3|
1,2,1.5|
2,0,3.6|
2,1,8.9|
2,2,0.25|
];
constraint_x10_x9=[
0,0,2.7|
0,1,2|
0,2,2.4|
1,0,1|
1,1,4.1|
1,2,7.4|
2,0,8.5|
2,1,5.4|
2,2,8.9|
];
constraint_x1_y1=[
0,0,2.2|
0,1,4.2|
0,2,3.4|
1,0,2.5|
1,1,4.9|
1,2,4.2|
2,0,8.8|
2,1,7.3|
2,2,5.4|
];
constraint_x2_y2=[
0,0,5|
0,1,2.8|
0,2,4.5|
1,0,5.2|
1,1,6.2|
1,2,7.8|
2,0,7.1|
2,1,6.3|
2,2,3|
];
initial_distribution_y1=[0.25,0.35,0.39];
initial_distribution_y2=[0.091,0.55,0.36];
transition_y1=[
0.54,0.16,0.3|
0.41,0.27,0.33|
0.074,0.24,0.69|
];
transition_y2=[
0.31,0.51,0.18|
0.39,0.35,0.27|
0.42,0.29,0.29|
];
